Maximize

5 y_0 + 10 y_1


Subject To

a0: x_0_0 + x_0_1 <= 6
a1: x_1_0 + x_1_1 <= 3
a2: x_2_0 + x_2_1 <= 8
b0: x_0_0 - 6 y_0 = 0
b1: x_1_0 - 0 y_0 = 0
b2: x_2_0 - 0 y_0 = 0
b3: x_0_1 - 0 y_1 = 0
b4: x_1_1 - 3 y_1 = 0
b5: x_2_1 - 8 y_1 = 0



Bounds


x_0_0 <= 7
x_0_1 <= 4
x_1_0 <= 7
x_1_1 <= 4
x_2_0 <= 7
x_2_1 <= 4




General

 x_0_0 x_0_1 x_1_0 x_1_1 x_2_0 x_2_1



End
